     Program PWSCF v.6.8 starts on 27Mar2024 at  0:37:52

     R & G space division:  proc/nbgrp/npool/nimage =      40

     Waiting for input...
     Reading input from standard input

     Current dimensions of program PWSCF are:
     Max number of different atomic species (ntypx) = 10
     Max number of k-points (npk) =  40000
     Max angular momentum in pseudopotentials (lmaxx) =  4
     Found symmetry operation: I + (  0.0000  0.0000  0.5000)
     This is a supercell, fractional translations are disabled
     Message from routine setup:
     using ibrav=0 with symmetry is DISCOURAGED, use correct ibrav instead

     Using Slab Decomposition

     bravais-lattice index     =            0
     lattice parameter (alat)  =      15.6609  a.u.
     unit-cell volume          =    3841.0637 (a.u.)^3
     number of atoms/cell      =           16
     number of atomic types    =            2
     number of electrons       =       128.00
     number of Kohn-Sham states=           77
     kinetic-energy cutoff     =     120.0000  Ry
     charge density cutoff     =    1000.0000  Ry
     scf convergence threshold =      9.6E-09
     mixing beta               =       0.4000
     number of iterations used =            8  plain     mixing
     energy convergence thresh.=      4.8E-06
     force convergence thresh. =      1.0E-05
     press convergence thresh. =      2.0E-01
     Exchange-correlation= PBE
                           (   1   4   3   4   0   0   0)
     nstep                     =          200

     celldm(1)=  15.660916  celldm(2)=   0.000000  celldm(3)=   0.000000
     celldm(4)=   0.000000  celldm(5)=   0.000000  celldm(6)=   0.000000

     crystal axes: (cart. coord. in units of alat)
               a(1) = (   1.000000   0.000000   0.000000 )
               a(2) = (   0.000000   1.000000   0.000000 )
               a(3) = (   0.000000   0.000000   1.000000 )

     reciprocal axes: (cart. coord. in units 2 pi/alat)
               b(1) = (  1.000000  0.000000  0.000000 )
               b(2) = (  0.000000  1.000000  0.000000 )
               b(3) = (  0.000000  0.000000  1.000000 )

     PseudoPot. # 1 for Cs read from file:
     ./Cs.upf
     MD5 check sum: d01c53d012be9123745781bcb8b00a26
     Pseudo is Norm-conserving + core correction, Zval =  9.0
     Generated using ONCVPSP code by D. R. Hamann
     Using radial grid of 2414 points,  8 beta functions with:
                l(1) =   0
                l(2) =   0
                l(3) =   1
                l(4) =   1
                l(5) =   2
                l(6) =   2
                l(7) =   3
                l(8) =   3

     PseudoPot. # 2 for Cl read from file:
     ./Cl.upf
     MD5 check sum: 3907b9d6e2fcd34dd737a713d16902d8
     Pseudo is Norm-conserving + core correction, Zval =  7.0
     Generated using ONCVPSP code by D. R. Hamann
     Using radial grid of 1028 points,  6 beta functions with:
                l(1) =   0
                l(2) =   0
                l(3) =   1
                l(4) =   1
                l(5) =   2
                l(6) =   2

     atomic species   valence    mass     pseudopotential
        Cs             9.00   132.90545     Cs( 1.00)
        Cl             7.00    35.45270     Cl( 1.00)

     48 Sym. Ops., with inversion, found

                                    s                        frac. trans.

      isym =  1     identity

 cryst.   s( 1) = (     1          0          0      )
                  (     0          1          0      )
                  (     0          0          1      )

 cart.    s( 1) = (  1.0000000  0.0000000  0.0000000 )
                  (  0.0000000  1.0000000  0.0000000 )
                  (  0.0000000  0.0000000  1.0000000 )

      isym =  2     180 deg rotation - cart. axis [0,0,1]

[...]

 cryst.   s(10) = (     0          0         -1      )
                  (     0         -1          0      )
                  (    -1          0          0      )

 cart.    s(10) = (  0.0000000  0.0000000 -1.0000000 )
                  (  0.0000000 -1.0000000  0.0000000 )
                  ( -1.0000000  0.0000000  0.0000000 )

[...]

      isym = 25     inversion

[...]

      isym = 26     inv. 180 deg rotation - cart. axis [0,0,1]

[...]

   Cartesian axes

     site n.     atom                  positions (alat units)
         1           Cs  tau(   1) = (   0.0000000   0.0000000   0.0000000  )
         2           Cl  tau(   2) = (   0.2499999   0.2499999   0.2499999  )
         3           Cs  tau(   3) = (   0.0000000   0.0000000   0.4999998  )
         4           Cl  tau(   4) = (   0.2499999   0.2499999   0.7499998  )
         5           Cs  tau(   5) = (   0.0000000   0.4999998   0.0000000  )
         6           Cl  tau(   6) = (   0.2499999   0.7499998   0.2499999  )
         7           Cs  tau(   7) = (   0.0000000   0.4999998   0.4999998  )
         8           Cl  tau(   8) = (   0.2499999   0.7499998   0.7499998  )
         9           Cs  tau(   9) = (   0.4999998   0.0000000   0.0000000  )
        10           Cl  tau(  10) = (   0.7499998   0.2499999   0.2499999  )
        11           Cs  tau(  11) = (   0.4999998   0.0000000   0.4999998  )
        12           Cl  tau(  12) = (   0.7499998   0.2499999   0.7499998  )
        13           Cs  tau(  13) = (   0.4999998   0.4999998   0.0000000  )
        14           Cl  tau(  14) = (   0.7499998   0.7499998   0.2499999  )
        15           Cs  tau(  15) = (   0.4999998   0.4999998   0.4999998  )
        16           Cl  tau(  16) = (   0.7499998   0.7499998   0.7499998  )

   Crystallographic axes

     site n.     atom                  positions (cryst. coord.)
         1           Cs  tau(   1) = (  0.0000000  0.0000000  0.0000000  )
         2           Cl  tau(   2) = (  0.2499999  0.2499999  0.2499999  )
         3           Cs  tau(   3) = (  0.0000000  0.0000000  0.4999998  )
         4           Cl  tau(   4) = (  0.2499999  0.2499999  0.7499998  )
         5           Cs  tau(   5) = (  0.0000000  0.4999998  0.0000000  )
         6           Cl  tau(   6) = (  0.2499999  0.7499998  0.2499999  )
         7           Cs  tau(   7) = (  0.0000000  0.4999998  0.4999998  )
         8           Cl  tau(   8) = (  0.2499999  0.7499998  0.7499998  )
         9           Cs  tau(   9) = (  0.4999998  0.0000000  0.0000000  )
        10           Cl  tau(  10) = (  0.7499998  0.2499999  0.2499999  )
        11           Cs  tau(  11) = (  0.4999998  0.0000000  0.4999998  )
        12           Cl  tau(  12) = (  0.7499998  0.2499999  0.7499998  )
        13           Cs  tau(  13) = (  0.4999998  0.4999998  0.0000000  )
        14           Cl  tau(  14) = (  0.7499998  0.7499998  0.2499999  )
        15           Cs  tau(  15) = (  0.4999998  0.4999998  0.4999998  )
        16           Cl  tau(  16) = (  0.7499998  0.7499998  0.7499998  )

     number of k points=    10  Marzari-Vanderbilt smearing, width (Ry)=  0.0073
                       cart. coord. in units 2pi/alat
        k(    1) = (   0.0000000   0.0000000   0.0000000), wk =   0.0312500
        k(    2) = (   0.0000000   0.0000000   0.2500000), wk =   0.1875000
        k(    3) = (   0.0000000   0.0000000  -0.5000000), wk =   0.0937500
        k(    4) = (   0.0000000   0.2500000   0.2500000), wk =   0.3750000
        k(    5) = (   0.0000000   0.2500000  -0.5000000), wk =   0.3750000
        k(    6) = (   0.0000000  -0.5000000  -0.5000000), wk =   0.0937500
        k(    7) = (   0.2500000   0.2500000   0.2500000), wk =   0.2500000
        k(    8) = (   0.2500000   0.2500000  -0.5000000), wk =   0.3750000
        k(    9) = (   0.2500000  -0.5000000  -0.5000000), wk =   0.1875000
        k(   10) = (  -0.5000000  -0.5000000  -0.5000000), wk =   0.0312500

                       cryst. coord.
        k(    1) = (   0.0000000   0.0000000   0.0000000), wk =   0.0312500
        k(    2) = (   0.0000000   0.0000000   0.2500000), wk =   0.1875000
        k(    3) = (   0.0000000   0.0000000  -0.5000000), wk =   0.0937500
        k(    4) = (   0.0000000   0.2500000   0.2500000), wk =   0.3750000
        k(    5) = (   0.0000000   0.2500000  -0.5000000), wk =   0.3750000
        k(    6) = (   0.0000000  -0.5000000  -0.5000000), wk =   0.0937500
        k(    7) = (   0.2500000   0.2500000   0.2500000), wk =   0.2500000
        k(    8) = (   0.2500000   0.2500000  -0.5000000), wk =   0.3750000
        k(    9) = (   0.2500000  -0.5000000  -0.5000000), wk =   0.1875000
        k(   10) = (  -0.5000000  -0.5000000  -0.5000000), wk =   0.0312500

     Initial potential from superposition of free atoms

     starting charge  127.69476, renormalised to  128.00000
     Starting wfcs are   72 randomized atomic wfcs +    5 random wfcs

     Self-consistent Calculation

     iteration #  1     ecut=   120.00 Ry     beta= 0.40
     Davidson diagonalization with overlap

     ethr =  1.00E-02,  avg # of iterations =  4.8

     Threshold (ethr) on eigenvalues was too large:
     Diagonalizing with lowered threshold

     Davidson diagonalization with overlap

[...]

     total energy              =    -638.56294803 Ry
     estimated scf accuracy    <       0.65990156 Ry

[...]

     c_bands:  1 eigenvalues not converged
     c_bands:  1 eigenvalues not converged
     ethr =  3.21E-05,  avg # of iterations = 14.7

[...]

     End of self-consistent calculation

          k = 0.0000 0.0000 0.0000 ( 85159 PWs)   bands (ev):

   -16.4732 -16.3963 -16.3963 -16.3963 -16.3305 -16.3305 -16.3305 -16.2685
    -9.2782  -9.2782  -9.2782  -9.2384  -9.1535  -9.1535  -9.1535  -9.0776
    -3.7072  -3.7072  -3.7072  -3.7072  -3.7072  -3.7072  -3.4833  -3.4833
    -3.4833  -3.4815  -3.4815  -3.4815  -2.9682  -2.9682  -2.9682  -2.8341
    -2.8341  -2.8341  -2.8341  -2.8341  -2.8341  -2.7505  -2.7505  -2.7505
     1.7869   1.7869   1.7869   1.8663   1.8663   1.8663   2.4957   2.4957
     2.4957   2.4957   2.4957   2.4957   2.6992   2.6992   2.6992   2.6992
     2.6992   2.6992   2.8661   2.8661   2.8661   2.9177   2.9177   2.9177
     8.1201   8.3383   8.3383   8.8631   8.8631   8.8631   8.9404   8.9404
     8.9404   9.3405   9.3405  10.4642  10.4642

     occupation numbers
     1.0000   1.0000   1.0000   1.0000   1.0000   1.0000   1.0000   1.0000
     1.0000   1.0000   1.0000   1.0000   1.0000   1.0000   1.0000   1.0000
     1.0000   1.0000   1.0000   1.0000   1.0000   1.0000   1.0000   1.0000
     1.0000   1.0000   1.0000   1.0000   1.0000   1.0000   1.0000   1.0000
     1.0000   1.0000   1.0000   1.0000   1.0000   1.0000   1.0000   1.0000
     1.0000   1.0000   1.0000   1.0000   1.0000   1.0000   1.0000   1.0000
     1.0000   1.0000   1.0000   1.0000   1.0000   1.0000   1.0000   1.0000
     1.0000   1.0000   1.0000   1.0000   1.0000   1.0000   1.0000   1.0000
     0.0000   0.0000   0.0000   0.0000   0.0000   0.0000   0.0000   0.0000
     0.0000   0.0000   0.0000   0.0000   0.0000

[...]

          k =-0.5000-0.5000-0.5000 ( 85304 PWs)   bands (ev):

[...]

     the Fermi energy is     4.3382 ev

!    total energy              =    -638.67803902 Ry
     estimated scf accuracy    <          1.6E-09 Ry
     smearing contrib. (-TS)   =       0.00000000 Ry
[...]
         2           Cl  tau(   2) = (  0.2499998  0.2499998  0.2499998  )
         3           Cs  tau(   3) = (  0.0000000 -0.0000000  0.4999998  )
         4           Cl  tau(   4) = (  0.2499998  0.2499998  0.7499998  )
         5           Cs  tau(   5) = (  0.0000000  0.4999998 -0.0000000  )
         6           Cl  tau(   6) = (  0.2499998  0.7499998  0.2499998  )
         7           Cs  tau(   7) = (  0.0000000  0.4999998  0.4999998  )
         8           Cl  tau(   8) = (  0.2499998  0.7499998  0.7499998  )
         9           Cs  tau(   9) = (  0.4999998  0.0000000 -0.0000000  )
        10           Cl  tau(  10) = (  0.7499998  0.2499998  0.2499998  )
        11           Cs  tau(  11) = (  0.4999998  0.0000000  0.4999998  )
        12           Cl  tau(  12) = (  0.7499998  0.2499998  0.7499998  )
        13           Cs  tau(  13) = (  0.4999998  0.4999998  0.0000000  )
        14           Cl  tau(  14) = (  0.7499998  0.7499998  0.2499998  )
        15           Cs  tau(  15) = (  0.4999998  0.4999998  0.4999998  )
        16           Cl  tau(  16) = (  0.7499998  0.7499998  0.7499998  )

     number of k points=    10  Marzari-Vanderbilt smearing, width (Ry)=  0.0073
                       cart. coord. in units 2pi/alat
        k(    1) = (   0.0000000   0.0000000   0.0000000), wk =   0.0312500
        k(    2) = (   0.0000000   0.0000000   0.2464448), wk =   0.1875000
        k(    3) = (   0.0000000   0.0000000  -0.4928897), wk =   0.0937500
        k(    4) = (   0.0000000   0.2464448   0.2464448), wk =   0.3750000
        k(    5) = (   0.0000000   0.2464448  -0.4928897), wk =   0.3750000
        k(    6) = (   0.0000000  -0.4928897  -0.4928897), wk =   0.0937500
        k(    7) = (   0.2464448   0.2464448   0.2464448), wk =   0.2500000
        k(    8) = (   0.2464448   0.2464448  -0.4928897), wk =   0.3750000
        k(    9) = (   0.2464448  -0.4928897  -0.4928897), wk =   0.1875000
        k(   10) = (  -0.4928897  -0.4928897  -0.4928897), wk =   0.0312500

                       cryst. coord.
        k(    1) = (   0.0000000   0.0000000   0.0000000), wk =   0.0312500
        k(    2) = (   0.0000000   0.0000000   0.2500000), wk =   0.1875000
        k(    3) = (   0.0000000   0.0000000  -0.5000000), wk =   0.0937500
        k(    4) = (   0.0000000   0.2500000   0.2500000), wk =   0.3750000
        k(    5) = (   0.0000000   0.2500000  -0.5000000), wk =   0.3750000
        k(    6) = (   0.0000000  -0.5000000  -0.5000000), wk =   0.0937500
        k(    7) = (   0.2500000   0.2500000   0.2500000), wk =   0.2500000
        k(    8) = (   0.2500000   0.2500000  -0.5000000), wk =   0.3750000
        k(    9) = (   0.2500000  -0.5000000  -0.5000000), wk =   0.1875000
        k(   10) = (  -0.5000000  -0.5000000  -0.5000000), wk =   0.0312500

     Initial potential from superposition of free atoms

     starting charge  127.69476, renormalised to  128.00000
     Starting wfcs are   72 randomized atomic wfcs +    5 random wfcs

     Self-consistent Calculation

[...]

     c_bands:  4 eigenvalues not converged
     c_bands:  5 eigenvalues not converged
     c_bands:  3 eigenvalues not converged
     c_bands:  1 eigenvalues not converged
     c_bands:  1 eigenvalues not converged
     c_bands:  5 eigenvalues not converged
     ethr =  1.00E-06,  avg # of iterations = 29.9

[...]

     total energy              =    -638.68184290 Ry
     estimated scf accuracy    <          3.7E-09 Ry

     iteration # 10     ecut=   120.00 Ry     beta= 0.40
     Davidson diagonalization with overlap

     ethr =  2.85E-12,  avg # of iterations =  4.7

     End of self-consistent calculation

[...]

          k = 0.2464-0.4929-0.4929 ( 88976 PWs)   bands (ev):

[...]

          k =-0.4929-0.4929-0.4929 ( 89168 PWs)   bands (ev):

[...]

     occupation numbers
     1.0000   1.0000   1.0000   1.0000   1.0000   1.0000   1.0000   1.0000
     1.0000   1.0000   1.0000   1.0000   1.0000   1.0000   1.0000   1.0000
     1.0000   1.0000   1.0000   1.0000   1.0000   1.0000   1.0000   1.0000
     1.0000   1.0000   1.0000   1.0000   1.0000   1.0000   1.0000   1.0000
     1.0000   1.0000   1.0000   1.0000   1.0000   1.0000   1.0000   1.0000
     1.0000   1.0000   1.0000   1.0000   1.0000   1.0000   1.0000   1.0000
     1.0000   1.0000   1.0000   1.0000   1.0000   1.0000   1.0000   1.0000
     1.0000   1.0000   1.0000   1.0000   1.0000   1.0000   1.0000   1.0000
     0.0000   0.0000   0.0000   0.0000   0.0000   0.0000   0.0000   0.0000
     0.0000   0.0000   0.0000   0.0000   0.0000

     the Fermi energy is     3.8899 ev

!    total energy              =    -638.68184290 Ry
     estimated scf accuracy    <          4.3E-11 Ry
     smearing contrib. (-TS)   =       0.00000000 Ry
     internal energy E=F+TS    =    -638.68184290 Ry

     The total energy is F=E-TS. E is the sum of the following terms:
     one-electron contribution =     -67.72509937 Ry
     hartree contribution      =      84.94141034 Ry
     xc contribution           =    -182.65850991 Ry
     ewald contribution        =    -473.23964396 Ry

     convergence has been achieved in  10 iterations

     Forces acting on atoms (cartesian axes, Ry/au):

     atom    1 type  1   force =     0.00000000    0.00000000    0.00000000
     atom    2 type  2   force =     0.00000000    0.00000000    0.00000000
     atom    3 type  1   force =     0.00000000    0.00000000    0.00000000
     atom    4 type  2   force =     0.00000000    0.00000000   -0.00000000
     atom    5 type  1   force =     0.00000000    0.00000000    0.00000000
     atom    6 type  2   force =     0.00000000   -0.00000000    0.00000000
     atom    7 type  1   force =     0.00000000    0.00000000    0.00000000
     atom    8 type  2   force =     0.00000000   -0.00000000   -0.00000000
     atom    9 type  1   force =     0.00000000    0.00000000    0.00000000
     atom   10 type  2   force =    -0.00000000    0.00000000    0.00000000
     atom   11 type  1   force =     0.00000000    0.00000000    0.00000000
     atom   12 type  2   force =    -0.00000000    0.00000000   -0.00000000
     atom   13 type  1   force =     0.00000000    0.00000000    0.00000000
     atom   14 type  2   force =    -0.00000000   -0.00000000    0.00000000
     atom   15 type  1   force =     0.00000000   -0.00000000    0.00000000
     atom   16 type  2   force =    -0.00000000   -0.00000000   -0.00000000
     The non-local contrib.  to forces
     atom    1 type  1   force =     0.00000000    0.00000000    0.00000000
     atom    2 type  2   force =     0.00000035    0.00000035    0.00000035
     atom    3 type  1   force =     0.00000000    0.00000000    0.00000000
     atom    4 type  2   force =     0.00000035    0.00000035   -0.00000035
     atom    5 type  1   force =     0.00000000    0.00000000    0.00000000
     atom    6 type  2   force =     0.00000035   -0.00000035    0.00000035
     atom    7 type  1   force =     0.00000000    0.00000000   -0.00000000
     atom    8 type  2   force =     0.00000035   -0.00000035   -0.00000035
     atom    9 type  1   force =     0.00000000    0.00000000    0.00000000
     atom   10 type  2   force =    -0.00000035    0.00000035    0.00000035
     atom   11 type  1   force =     0.00000000    0.00000000    0.00000000
     atom   12 type  2   force =    -0.00000035    0.00000035   -0.00000035
     atom   13 type  1   force =     0.00000000    0.00000000    0.00000000
     atom   14 type  2   force =    -0.00000035   -0.00000035    0.00000035
     atom   15 type  1   force =     0.00000000    0.00000000   -0.00000000
     atom   16 type  2   force =    -0.00000035   -0.00000035   -0.00000035
     The ionic contribution  to forces
     atom    1 type  1   force =    -0.00001163   -0.00001163   -0.00001163
     atom    2 type  2   force =     0.00000170    0.00000170    0.00000170
     atom    3 type  1   force =    -0.00001163   -0.00001163    0.00000961
     atom    4 type  2   force =     0.00000170    0.00000170    0.00000031
     atom    5 type  1   force =    -0.00001163    0.00000961   -0.00001163
     atom    6 type  2   force =     0.00000170    0.00000031    0.00000170
     atom    7 type  1   force =    -0.00001163    0.00000961    0.00000961
     atom    8 type  2   force =     0.00000170    0.00000031    0.00000031
     atom    9 type  1   force =     0.00000961   -0.00001163   -0.00001163
     atom   10 type  2   force =     0.00000031    0.00000170    0.00000170
     atom   11 type  1   force =     0.00000961   -0.00001163    0.00000961
     atom   12 type  2   force =     0.00000031    0.00000170    0.00000031
     atom   13 type  1   force =     0.00000961    0.00000961   -0.00001163
     atom   14 type  2   force =     0.00000031    0.00000031    0.00000170
     atom   15 type  1   force =     0.00000961    0.00000961    0.00000961
     atom   16 type  2   force =     0.00000031    0.00000031    0.00000031
     The local contribution  to forces
     atom    1 type  1   force =     0.00000000    0.00000000    0.00000000
     atom    2 type  2   force =     0.00002700    0.00002700    0.00002700
     atom    3 type  1   force =     0.00000000    0.00000000    0.00002397
     atom    4 type  2   force =     0.00002700    0.00002700    0.00003017
     atom    5 type  1   force =     0.00000000    0.00002397    0.00000000
     atom    6 type  2   force =     0.00002700    0.00003017    0.00002700
     atom    7 type  1   force =     0.00000000    0.00002397    0.00002397
     atom    8 type  2   force =     0.00002700    0.00003017    0.00003017
     atom    9 type  1   force =     0.00002397    0.00000000    0.00000000
     atom   10 type  2   force =     0.00003017    0.00002700    0.00002700
     atom   11 type  1   force =     0.00002397    0.00000000    0.00002397
     atom   12 type  2   force =     0.00003017    0.00002700    0.00003017
     atom   13 type  1   force =     0.00002397    0.00002397    0.00000000
     atom   14 type  2   force =     0.00003017    0.00003017    0.00002700
     atom   15 type  1   force =     0.00002397    0.00002397    0.00002397
     atom   16 type  2   force =     0.00003017    0.00003017    0.00003017
     The core correction contribution to forces
     atom    1 type  1   force =    -0.00000000   -0.00000000   -0.00000000
     atom    2 type  2   force =    -0.00000234   -0.00000234   -0.00000234
     atom    3 type  1   force =    -0.00000000   -0.00000000    0.00000004
     atom    4 type  2   force =    -0.00000234   -0.00000234   -0.00000230
     atom    5 type  1   force =    -0.00000000    0.00000004   -0.00000000
     atom    6 type  2   force =    -0.00000234   -0.00000230   -0.00000234
     atom    7 type  1   force =    -0.00000000    0.00000004    0.00000004
     atom    8 type  2   force =    -0.00000234   -0.00000230   -0.00000230
     atom    9 type  1   force =     0.00000004   -0.00000000   -0.00000000
     atom   10 type  2   force =    -0.00000230   -0.00000234   -0.00000234
     atom   11 type  1   force =     0.00000004   -0.00000000    0.00000004
     atom   12 type  2   force =    -0.00000230   -0.00000234   -0.00000230
     atom   13 type  1   force =     0.00000004    0.00000004   -0.00000000
     atom   14 type  2   force =    -0.00000230   -0.00000230   -0.00000234
     atom   15 type  1   force =     0.00000004    0.00000004    0.00000004
     atom   16 type  2   force =    -0.00000230   -0.00000230   -0.00000230
     The Hubbard contrib.    to forces
     atom    1 type  1   force =     0.00000000    0.00000000    0.00000000
     atom    2 type  2   force =     0.00000000    0.00000000    0.00000000
     atom    3 type  1   force =     0.00000000    0.00000000    0.00000000
     atom    4 type  2   force =     0.00000000    0.00000000    0.00000000
     atom    5 type  1   force =     0.00000000    0.00000000    0.00000000
     atom    6 type  2   force =     0.00000000    0.00000000    0.00000000
     atom    7 type  1   force =     0.00000000    0.00000000    0.00000000
     atom    8 type  2   force =     0.00000000    0.00000000    0.00000000
     atom    9 type  1   force =     0.00000000    0.00000000    0.00000000
     atom   10 type  2   force =     0.00000000    0.00000000    0.00000000
     atom   11 type  1   force =     0.00000000    0.00000000    0.00000000
     atom   12 type  2   force =     0.00000000    0.00000000    0.00000000
     atom   13 type  1   force =     0.00000000    0.00000000    0.00000000
     atom   14 type  2   force =     0.00000000    0.00000000    0.00000000
     atom   15 type  1   force =     0.00000000    0.00000000    0.00000000
     atom   16 type  2   force =     0.00000000    0.00000000    0.00000000
     The SCF correction term to forces
     atom    1 type  1   force =     0.00000000    0.00000000    0.00000000
     atom    2 type  2   force =     0.00000057    0.00000057    0.00000057
     atom    3 type  1   force =     0.00000000    0.00000000   -0.00000000
     atom    4 type  2   force =     0.00000057    0.00000057   -0.00000057
     atom    5 type  1   force =     0.00000000   -0.00000000    0.00000000
     atom    6 type  2   force =     0.00000057   -0.00000057    0.00000057
     atom    7 type  1   force =     0.00000000   -0.00000000   -0.00000000
     atom    8 type  2   force =     0.00000057   -0.00000057   -0.00000057
     atom    9 type  1   force =    -0.00000000    0.00000000    0.00000000
     atom   10 type  2   force =    -0.00000057    0.00000057    0.00000057
     atom   11 type  1   force =    -0.00000000    0.00000000   -0.00000000
     atom   12 type  2   force =    -0.00000057    0.00000057   -0.00000057
     atom   13 type  1   force =    -0.00000000   -0.00000000    0.00000000
     atom   14 type  2   force =    -0.00000057   -0.00000057    0.00000057
     atom   15 type  1   force =    -0.00000000   -0.00000000   -0.00000000
     atom   16 type  2   force =    -0.00000057   -0.00000057   -0.00000057

     Total force =     0.000000     Total SCF correction =     0.000003
     SCF correction compared to forces is large: reduce conv_thr to get better values

     Computing stress (Cartesian axis) and pressure

          total   stress  (Ry/bohr**3)                   (kbar)     P=        0.00
   0.00000001   0.00000000   0.00000000            0.00        0.00        0.00
   0.00000000   0.00000001   0.00000000            0.00        0.00        0.00
   0.00000000   0.00000000   0.00000001            0.00        0.00        0.00

     kinetic stress (kbar)   4212.41      0.00      0.00
                                0.00   4212.41      0.00
                                0.00      0.00   4212.41

     local   stress (kbar)  -2472.14     -0.00     -0.00
                               -0.00  -2472.14     -0.00
                               -0.00     -0.00  -2472.14

     nonloc. stress (kbar)   4626.05      0.00      0.00
                                0.00   4626.05      0.00
                                0.00      0.00   4626.05

     hartree stress (kbar)   1038.76      0.00      0.00
                                0.00   1038.76      0.00
                                0.00      0.00   1038.76

     exc-cor stress (kbar)   1546.47     -0.00     -0.00
                               -0.00   1546.47     -0.00
                               -0.00     -0.00   1546.47

     corecor stress (kbar)  -3164.25      0.00      0.00
                                0.00  -3164.25      0.00
                                0.00      0.00  -3164.25

     ewald   stress (kbar)  -5787.29      0.00      0.00
                                0.00  -5787.29      0.00
                                0.00      0.00  -5787.29

     hubbard stress (kbar)      0.00      0.00      0.00
                                0.00      0.00      0.00
                                0.00      0.00      0.00

     DFT-D   stress (kbar)      0.00      0.00      0.00
                                0.00      0.00      0.00
                                0.00      0.00      0.00

     XDM     stress (kbar)      0.00      0.00      0.00
                                0.00      0.00      0.00
                                0.00      0.00      0.00

     dft-nl  stress (kbar)      0.00      0.00      0.00
                                0.00      0.00      0.00
                                0.00      0.00      0.00

     TS-vdW  stress (kbar)      0.00      0.00      0.00
                                0.00      0.00      0.00
                                0.00      0.00      0.00

[...]

                                0.00      0.00      0.00

     Writing output data file ./out/pwscf.save/

     General routines

     Parallel routines

   This run was terminated on:   0:49:24  27Mar2024

   JOB DONE.